InboundTrucks  = 20;
OutboundTrucks = 13;
ReleaseTime    = [45,29,59,46,44,47,52,13,44,4,58,38,47,7,41,24,29,56,21,55];
UnloadTime     = [2,8,2,3,4,10,1,1,4,2,3,10,9,5,3,7,10,7,4,10];
LoadTime       = [10,4,2,6,4,10,4,10,9,8,5,5,4];
TransferTime   = [| 0,0,0,0,5,0,0,4,0,0,0,0,0 | 0,0,0,0,5,0,4,0,0,0,0,0,0 | 0,4,0,0,0,2,0,0,4,1,0,0,0 | 0,0,0,0,0,0,0,0,0,0,3,0,0 | 0,0,0,0,0,1,0,0,0,0,0,0,0 | 0,0,0,0,0,0,5,0,0,0,4,0,0 | 0,0,0,0,4,0,0,5,0,0,0,0,5 | 0,0,1,2,0,0,0,0,0,0,4,0,3 | 0,0,0,5,0,0,0,0,3,0,0,0,4 | 0,0,3,0,2,0,0,0,0,0,0,1,3 | 0,0,0,3,0,0,0,0,0,0,0,4,0 | 0,0,0,0,0,0,0,1,0,0,0,0,0 | 0,0,0,0,3,0,0,0,0,0,0,3,3 | 3,0,0,0,0,3,0,3,0,0,0,0,0 | 0,0,2,0,5,3,0,0,0,0,0,0,1 | 0,0,0,0,0,0,1,5,2,0,4,2,4 | 2,5,0,0,0,0,0,4,0,0,4,0,4 | 0,0,0,0,2,0,5,0,5,5,0,5,0 | 0,0,0,0,0,0,0,0,4,0,5,0,2 | 0,0,3,0,1,0,0,0,0,0,0,0,0 |];
